ssat_solver_solve2
#level: 2
Abc_NtkNodeNum(s->pNtk): 1802  , BDD limit: 10240
level 1: 15 element
Exist
existence_eliminate_scope
Abc_NtkIsBddLogic(pNtk): 0
Abc_NtkIsStrash(pNtk): 1
existence_eliminate_scope_aig
exist by BDD failed
Abc_NtkNodeNum(s->pNtk): 606194  , BDD limit: 727432
Build BDD success
level 0: 15 element
Random
c ssat solving in ABC
#var: 30
s SATISFIABLE
  > Upper bound = 1.000000e+00
  > Lower bound = 1.000000e+00
FINISHED CPU 23.10 MEM 181692 MAXMEM 181692 STALE 1 MAXMEM_RSS 137896
<time name="ALL">23190</time>
real 24.27
user 26.96
sys 9.86
